NAME : portcgen-18-7
COMMENT : portcgen N=18, seed=7
TYPE : TSP
DIMENSION : 18
EDGE_WEIGHT_TYPE : EUC_2D
NODE_COORD_SECTION
1 150511 -212872
2 -63942 381604
3 184344 -70943
4 -283035 -298489
5 -398883 101618
6 -20462 -199575
7 -456522 -250958
8 218907 219679
9 -11855 -265578
10 914 -42860
11 151354 -27875
12 26769 -368154
13 -571330 189604
14 -348373 235529
15 442831 326027
16 -108816 144789
17 -81453 -284716
18 -37703 -254131
